************************************************************************
file with basedata            : j60_47.bas
initial value random generator: 4150
************************************************************************
projects                      :  1
jobs (incl. supersource/sink ):  62
horizon                       :  307
RESOURCES
  - renewable                 :  4   R
  - nonrenewable              :  0   N
  - doubly constrained        :  0   D
************************************************************************
PROJECT INFORMATION:
pronr.  #jobs rel.date duedate tardcost  MPM-Time
    1     60      0       65       45       65
************************************************************************
PRECEDENCE RELATIONS:
jobnr.    #modes  #successors   successors
   1        1          3           2   3   4
   2        1          3           7   8  12
   3        1          3          11  19  29
   4        1          2           5  16
   5        1          2           6  14
   6        1          3          10  45  58
   7        1          1          55
   8        1          3           9  15  47
   9        1          3          24  38  50
  10        1          3          22  25  26
  11        1          1          26
  12        1          3          13  15  52
  13        1          1          59
  14        1          2          23  30
  15        1          3          18  21  53
  16        1          2          17  34
  17        1          3          18  20  28
  18        1          2          32  46
  19        1          2          33  47
  20        1          3          27  43  44
  21        1          1          22
  22        1          2          37  40
  23        1          3          27  43  47
  24        1          2          37  48
  25        1          3          34  38  61
  26        1          1          39
  27        1          3          38  40  49
  28        1          3          31  35  36
  29        1          3          30  33  35
  30        1          2          31  36
  31        1          1          60
  32        1          2          41  56
  33        1          3          39  45  56
  34        1          1          57
  35        1          1          51
  36        1          1          55
  37        1          2          42  55
  38        1          2          42  46
  39        1          1          53
  40        1          2          42  54
  41        1          2          43  54
  42        1          1          60
  43        1          1          57
  44        1          2          46  50
  45        1          1          48
  46        1          1          60
  47        1          2          50  51
  48        1          1          51
  49        1          1          56
  50        1          2          52  54
  51        1          1          53
  52        1          1          58
  53        1          1          61
  54        1          1          61
  55        1          1          57
  56        1          1          58
  57        1          1          59
  58        1          1          59
  59        1          1          62
  60        1          1          62
  61        1          1          62
  62        1          0        
************************************************************************
REQUESTS/DURATIONS:
jobnr. mode duration  R 1  R 2  R 3  R 4
------------------------------------------------------------------------
  1      1     0       0    0    0    0
  2      1     3       8    9    9    8
  3      1    10       6    6    3    6
  4      1     6       3    2    6    7
  5      1     5       6    2    3   10
  6      1     3       9    2    1    9
  7      1    10      10    4    4    5
  8      1     4       6    6    6    2
  9      1     2      10    3    7    4
 10      1     4       8    9    2    6
 11      1     8       3    3    7   10
 12      1     8       6    1    9    9
 13      1    10       6    4    6    7
 14      1     2       1    4    9    7
 15      1    10       2    6   10    3
 16      1     2       8    2    1    4
 17      1     2       8    1    4    4
 18      1     2       5    6    4    5
 19      1     6       3    9    1    3
 20      1     5      10    8    1    8
 21      1     7       1    3    6    8
 22      1     6       2    7    9    2
 23      1     2       9    3    4    2
 24      1     6       2   10    2   10
 25      1     9       4    8    9    8
 26      1     1       4    1    3    7
 27      1     3       4    8    5   10
 28      1     4       6    8    2    7
 29      1     8       4    7    1   10
 30      1    10       8    2    6    1
 31      1     1       9    4    7    8
 32      1     6       2    2    9    1
 33      1     1       1    6    5    8
 34      1     2      10    4    2    8
 35      1     4       8    6   10    5
 36      1     5      10    6    7   10
 37      1     9      10    2    1    2
 38      1     4       3    3    7    7
 39      1     3       8    7    4    2
 40      1     1      10    7    9    5
 41      1     7      10    4    4    2
 42      1     5       8    9    9    8
 43      1     6       9    3    4    8
 44      1     3       8    9    8   10
 45      1     1       3    9    9    9
 46      1     9       6   10    5    1
 47      1     3       3    4    3    6
 48      1     9       1    8    1    9
 49      1     9       5    6    5    2
 50      1     1       4    3    6    7
 51      1     4       5    4    8    4
 52      1     2       1    3    2    3
 53      1     7      10    6    8    1
 54      1     5       6    3    5    1
 55      1     6       4   10    1   10
 56      1     5       5   10    6    8
 57      1    10      10    1    6    5
 58      1     3       1    2    9    8
 59      1     6       7    3    1    5
 60      1     4       8   10    2    8
 61      1     8       9    6    6    4
 62      1     0       0    0    0    0
************************************************************************
RESOURCEAVAILABILITIES:
  R 1  R 2  R 3  R 4
   42   49   49   58
************************************************************************
